(declare-fun temp4891_2 () (_ BitVec 64))
(declare-fun temp4891_1 () (_ BitVec 64))
(declare-fun temp4891_4 () (_ BitVec 64))
(declare-fun temp4891_3 () (_ BitVec 64))
(declare-fun temp4891_6 () (_ BitVec 64))
(declare-fun temp4891_5 () (_ BitVec 64))
(declare-fun temp4891_8 () (_ BitVec 64))
(declare-fun temp4891_7 () (_ BitVec 64))
(declare-fun temp4891_10 () (_ BitVec 64))
(declare-fun temp4891_9 () (_ BitVec 64))
(declare-fun temp4891_12 () (_ BitVec 64))
(declare-fun temp4891_11 () (_ BitVec 64))
(declare-fun temp4891_14 () (_ BitVec 64))
(declare-fun temp4891_13 () (_ BitVec 64))
(declare-fun temp4891_16 () (_ BitVec 64))
(declare-fun temp4891_15 () (_ BitVec 64))
(declare-fun temp4891_18 () (_ BitVec 64))
(declare-fun temp4891_17 () (_ BitVec 64))
(declare-fun temp4891_19 () (_ BitVec 64))
(declare-fun temp4891_20 () (_ BitVec 64))
(declare-fun temp4891_21 () (_ BitVec 64))
(declare-fun temp4891_22 () (_ BitVec 64))
(declare-fun temp4891_23 () (_ BitVec 64))
(declare-fun var66553 () (_ BitVec 64))
(declare-fun temp4891_24 () (_ BitVec 64))
(declare-fun var66557 () (_ BitVec 64))
(declare-fun temp4891_25 () (_ BitVec 64))
(declare-fun temp4891_27 () (_ BitVec 64))
(declare-fun temp4891_26 () (_ BitVec 64))
(declare-fun temp4891_28 () (_ BitVec 64))
(declare-fun var66617 () (_ BitVec 64))
(declare-fun temp4891_29 () (_ BitVec 64))
(declare-fun var66620 () (_ BitVec 64))
(declare-fun temp4891_30 () (_ BitVec 64))
(declare-fun temp4891_31 () (_ BitVec 64))
(declare-fun temp4891_32 () (_ BitVec 64))
(declare-fun temp4891_33 () (_ BitVec 64))
(declare-fun temp4891_35 () (_ BitVec 64))
(declare-fun temp4891_34 () (_ BitVec 64))
(assert (= temp4891_2 #x0000000000000000))
(assert (= temp4891_1 temp4891_2))
(assert (= temp4891_4 #x0000000000000004))
(assert (= temp4891_3 temp4891_4))
(assert (= temp4891_6 #x0000000000000001))
(assert (= temp4891_5 temp4891_6))
(assert (= temp4891_8 #x0000000000000001))
(assert (= temp4891_7 temp4891_8))
(assert (= temp4891_10 #x0000000000000000))
(assert (= temp4891_9 temp4891_10))
(assert (= temp4891_12 #x0000000000000001))
(assert (= temp4891_11 temp4891_12))
(assert (= temp4891_14 #x0000000000000000))
(assert (= temp4891_13 temp4891_14))
(assert (= temp4891_16 #x0000000000000000))
(assert (= temp4891_15 temp4891_16))
(assert (= temp4891_18 #x0000000000000000))
(assert (= temp4891_17 temp4891_18))
(assert (= temp4891_19 #x0000000000000001))
(assert (= temp4891_20 #x0000000000000002))
(assert (= temp4891_21 #x0000000000000004))
(assert (= temp4891_22 #x0000000000000008))
(assert (or false
    (= temp4891_7 temp4891_19)
    (= temp4891_7 temp4891_20)
    (= temp4891_7 temp4891_21)
    (= temp4891_7 temp4891_22)))
(assert (= temp4891_23 #x0000000000000000))
(assert (= var66553 temp4891_23))
(assert (= temp4891_24 #x0000000000000000))
(assert (= var66557
   (ite (= var66553 temp4891_24) #x0000000000000001 #x0000000000000000)))
(assert (= temp4891_25 #x0000000000000001))
(assert (= var66557 temp4891_25))
(assert (= temp4891_27 #x0000000000000001))
(assert (= temp4891_26 temp4891_27))
(assert (= temp4891_28 #x0000000000000000))
(assert (= var66617 temp4891_28))
(assert (= temp4891_29 #x0000000000000000))
(assert (= var66620
   (ite (= var66617 temp4891_29) #x0000000000000001 #x0000000000000000)))
(assert (= temp4891_30 #x0000000000000001))
(assert (= var66620 temp4891_30))
(assert (= temp4891_31 #x0000000000000001))
(assert (= temp4891_32 #x0000000000000004))
(assert (= temp4891_33 #x0000000000000011))
(assert (or false
    (= temp4891_3 temp4891_31)
    (= temp4891_3 temp4891_32)
    (= temp4891_3 temp4891_33)))
(assert (= temp4891_35 #x0000000000000003))
(assert (= temp4891_34 temp4891_35))
(model-add temp4891_2 () (_ BitVec 64) #x0000000000000000)
(model-add temp4891_1 () (_ BitVec 64) #x0000000000000000)
(model-add temp4891_4 () (_ BitVec 64) #x0000000000000004)
(model-add temp4891_3 () (_ BitVec 64) #x0000000000000004)
(model-add temp4891_6 () (_ BitVec 64) #x0000000000000001)
(model-add temp4891_5 () (_ BitVec 64) #x0000000000000001)
(model-add temp4891_8 () (_ BitVec 64) #x0000000000000001)
(model-add temp4891_7 () (_ BitVec 64) #x0000000000000001)
(model-add temp4891_10 () (_ BitVec 64) #x0000000000000000)
(model-add temp4891_9 () (_ BitVec 64) #x0000000000000000)
(model-add temp4891_12 () (_ BitVec 64) #x0000000000000001)
(model-add temp4891_11 () (_ BitVec 64) #x0000000000000001)
(model-add temp4891_14 () (_ BitVec 64) #x0000000000000000)
(model-add temp4891_13 () (_ BitVec 64) #x0000000000000000)
(model-add temp4891_16 () (_ BitVec 64) #x0000000000000000)
(model-add temp4891_15 () (_ BitVec 64) #x0000000000000000)
(model-add temp4891_18 () (_ BitVec 64) #x0000000000000000)
(model-add temp4891_17 () (_ BitVec 64) #x0000000000000000)
(model-add temp4891_19 () (_ BitVec 64) #x0000000000000001)
(model-add temp4891_20 () (_ BitVec 64) #x0000000000000002)
(model-add temp4891_21 () (_ BitVec 64) #x0000000000000004)
(model-add temp4891_22 () (_ BitVec 64) #x0000000000000008)













